161
154
123
134
144
126
118
133
145
142
152
149
156
145
144
146
150
142
175
141
144
141
198
177
185
186
171
183
194
186
189
194
205
302
257
204
206
226
223
222
252
239
374
330
366
481
328
390
405
399
453
459
477
560
489
479
464
547
497
498
535
528
